187258
22,91,11,7,28,29,51,4,54,96,68,97,64,30,87,5,19,15,55,63,89,16,61,24,44,71,21,20,85,45,76,39,12,105,92,88,79,56,82,101,73,23,57,58,65,43,86,27,26,9,75,0,78,42,59,90,102,46,60,3,62,31,74,52,83,6,36,70,94,104,10,53,35,77,95,93,2,100,37,103,66,40,47,84,72,48,69,17,38,32,1,99,50,81,34,14,13,67,49,25,33,18,98,80,41,8